AME : levi30_12
COMMENT : 30: 36x20 -city problem (levikoppenhol)
TYPE : TSP
DIMENSION : 30
EDGE_WEIGHT_TYPE : EUC_2D
NODE_COORD_SECTION
1 10 3
2 6 1
3 1 34
4 1 13
5 7 18
6 8 31
7 5 26
8 11 1
9 19 17
10 7 34
11 18 31
12 7 32
13 18 10
14 9 10
15 20 4
16 1 24
17 13 33
18 19 12
19 7 9
20 2 20
21 0 21
22 7 18
23 3 12
24 18 31
25 13 13
26 6 30
27 3 3
28 20 8
29 13 19
30 8 25
EOF